

******************************************************************************
This program contains Ipopt, a library for large-scale nonlinear optimization.
 Ipopt is released as open source code under the Eclipse Public License (EPL).
         For more information visit http://projects.coin-or.org/Ipopt
******************************************************************************

This is Ipopt version 3.12.8, running with linear solver mumps.
NOTE: Other linear solvers might be more efficient (see Ipopt documentation).

Number of nonzeros in equality constraint Jacobian...:        0
Number of nonzeros in inequality constraint Jacobian.:        0
Number of nonzeros in Lagrangian Hessian.............:       66

Total number of variables............................:       11
                     variables with only lower bounds:        0
                variables with lower and upper bounds:        0
                     variables with only upper bounds:        0
Total number of equality constraints.................:        0
Total number of inequality constraints...............:        0
        inequality constraints with only lower bounds:        0
   inequality constraints with lower and upper bounds:        0
        inequality constraints with only upper bounds:        0

iter    objective    inf_pr   inf_du lg(mu)  ||d||  lg(rg) alpha_du alpha_pr  ls
   0  2.0934195e+00 0.00e+00 4.49e+00  -1.0 0.00e+00    -  0.00e+00 0.00e+00   0
   1  1.8207000e+00 0.00e+00 3.80e+00  -1.0 3.79e-02   2.0 1.00e+00 1.00e+00f  1
   2  1.3389269e+00 0.00e+00 2.73e+00  -1.0 8.12e-02   1.5 1.00e+00 1.00e+00f  1
   3  7.5152842e-01 0.00e+00 1.75e+00  -1.0 1.44e-01   1.0 1.00e+00 1.00e+00f  1
   4  4.2594699e-01 0.00e+00 9.42e-01  -1.0 1.62e-01   0.6 1.00e+00 1.00e+00f  1
   5  3.4546253e-01 0.00e+00 1.57e-01  -1.7 8.46e-02   0.1 1.00e+00 1.00e+00f  1
   6  3.2500921e-01 0.00e+00 5.22e-02  -2.5 1.27e-01  -0.4 1.00e+00 1.00e+00f  1
   7  2.9670446e-01 0.00e+00 5.30e-02  -2.5 3.91e-01  -0.9 1.00e+00 1.00e+00f  1
   8  2.1003597e-01 0.00e+00 5.78e-01  -2.5 1.31e+00  -1.3 1.00e+00 1.00e+00f  1
   9  1.5900136e-01 0.00e+00 2.40e+00  -2.5 3.07e+00  -1.8 1.00e+00 5.00e-01f  2
iter    objective    inf_pr   inf_du lg(mu)  ||d||  lg(rg) alpha_du alpha_pr  ls
  10  8.1864656e-02 0.00e+00 6.52e-01  -2.5 8.07e-01    -  1.00e+00 1.00e+00f  1
  11  7.6406955e-02 0.00e+00 1.33e+00  -2.5 6.57e-01    -  1.00e+00 1.00e+00f  1
  12  4.4938467e-02 0.00e+00 1.79e-01  -2.5 1.00e-01    -  1.00e+00 1.00e+00f  1
  13  4.1789176e-02 0.00e+00 1.92e-01  -2.5 1.98e-01    -  1.00e+00 1.00e+00f  1
  14  4.0465853e-02 0.00e+00 3.10e-02  -2.5 5.83e-02    -  1.00e+00 1.00e+00f  1
  15  4.0188310e-02 0.00e+00 3.48e-02  -2.5 1.08e-01    -  1.00e+00 1.00e+00f  1
  16  4.0138928e-02 0.00e+00 1.71e-03  -2.5 1.64e-02    -  1.00e+00 1.00e+00f  1
  17  4.0137738e-02 0.00e+00 2.06e-04  -3.8 8.17e-03    -  1.00e+00 1.00e+00f  1
  18  4.0137736e-02 0.00e+00 8.88e-08  -5.7 1.28e-04    -  1.00e+00 1.00e+00f  1
  19  4.0137736e-02 0.00e+00 4.59e-13  -8.6 3.84e-07    -  1.00e+00 1.00e+00f  1

Number of Iterations....: 19

                                   (scaled)                 (unscaled)
Objective...............:   4.0137736293547763e-02    4.0137736293547763e-02
Dual infeasibility......:   4.5869211207083538e-13    4.5869211207083538e-13
Constraint violation....:   0.0000000000000000e+00    0.0000000000000000e+00
Complementarity.........:   0.0000000000000000e+00    0.0000000000000000e+00
Overall NLP error.......:   4.5869211207083538e-13    4.5869211207083538e-13


Number of objective function evaluations             = 25
Number of objective gradient evaluations             = 20
Number of equality constraint evaluations            = 0
Number of inequality constraint evaluations          = 0
Number of equality constraint Jacobian evaluations   = 0
Number of inequality constraint Jacobian evaluations = 0
Number of Lagrangian Hessian evaluations             = 19
Total CPU secs in IPOPT (w/o function evaluations)   =      0.006
Total CPU secs in NLP function evaluations           =      0.003

EXIT: Optimal Solution Found.
 
Ipopt 3.12.8: Optimal Solution Found
